outputs/case_200.model.txt
significantly_insufficient_measures_completed = False
improvement_plan_executed = False
capital_adequacy_ratio = 40
net_worth_ratio_prev1 = 5/2
improvement_plan_submitted = False
financial_or_business_deteriorated = True
net_worth_ratio_prev2 = 27/10
severely_insufficient_measures_completed = True
net_worth = -10
insufficient_and_no_measures = False
penalty = False
insufficient_measures_executed = False
significantly_insufficient_measures_executed = False
significant_deterioration_and_no_measures = False
capital_level = 4
serious_insufficient_and_no_measures = False
severely_insufficient_measures_executed = True